\ Model knapsack_60_10_4
\ LP format - for model browsing. Use MPS format to capture full model detail.
\ Signature: 0x3c7c1d9d9cf83ca1
Minimize
  - 156 y[0] - 129 y[1] - 1085 y[2] - 133 y[3] - 183 y[4] - 955 y[5]
   - 500 y[6] - 563 y[7] - 393 y[8] - 260 y[9] - 674 y[10] - 696 y[11]
   - 938 y[12] - 636 y[13] - 764 y[14] - 1010 y[15] - 562 y[16] - 257 y[17]
   - 507 y[18] - 481 y[19] - 280 y[20] - 562 y[21] - 388 y[22] - 322 y[23]
   - 385 y[24] - 846 y[25] - 501 y[26] - 793 y[27] - 553 y[28] - 866 y[29]
   - 589 y[30] - 555 y[31] - 530 y[32] - 841 y[33] - 337 y[34] - 929 y[35]
   - 366 y[36] - 221 y[37] - 391 y[38] - 880 y[39] - 154 y[40] - 612 y[41]
   - 1096 y[42] - 678 y[43] - 337 y[44] - 447 y[45] - 671 y[46] - 911 y[47]
   - 377 y[48] - 468 y[49] - 257 y[50] - 557 y[51] - 1039 y[52] - 547 y[53]
   - 224 y[54] - 966 y[55] - 226 y[56] - 661 y[57] - 1000 y[58] - 455 y[59]
Subject To
 primal_upper: 56 y[0] + 29 y[1] + 985 y[2] + 33 y[3] + 83 y[4] + 855 y[5]
   + 400 y[6] + 463 y[7] + 293 y[8] + 160 y[9] + 574 y[10] + 596 y[11]
   + 838 y[12] + 536 y[13] + 664 y[14] + 910 y[15] + 462 y[16] + 157 y[17]
   + 407 y[18] + 381 y[19] + 180 y[20] + 462 y[21] + 288 y[22] + 222 y[23]
   + 285 y[24] + 746 y[25] + 401 y[26] + 693 y[27] + 453 y[28] + 766 y[29]
   + 489 y[30] + 455 y[31] + 430 y[32] + 741 y[33] + 237 y[34] + 829 y[35]
   + 266 y[36] + 121 y[37] + 291 y[38] + 780 y[39] + 54 y[40] + 512 y[41]
   + 996 y[42] + 578 y[43] + 237 y[44] + 347 y[45] + 571 y[46] + 811 y[47]
   + 277 y[48] + 368 y[49] + 157 y[50] + 457 y[51] + 939 y[52] + 447 y[53]
   + 124 y[54] + 866 y[55] + 126 y[56] + 561 y[57] + 900 y[58] + 355 y[59]
   + 6 z[0] + 3 z[1] + 98 z[2] + 3 z[3] + 8 z[4] + 86 z[5] + 40 z[6]
   + 46 z[7] + 29 z[8] + 16 z[9] + 57 z[10] + 60 z[11] + 84 z[12]
   + 54 z[13] + 66 z[14] + 91 z[15] + 46 z[16] + 16 z[17] + 41 z[18]
   + 38 z[19] + 18 z[20] + 46 z[21] + 29 z[22] + 22 z[23] + 28 z[24]
   + 75 z[25] + 40 z[26] + 69 z[27] + 45 z[28] + 77 z[29] + 49 z[30]
   + 46 z[31] + 43 z[32] + 74 z[33] + 24 z[34] + 83 z[35] + 27 z[36]
   + 12 z[37] + 29 z[38] + 78 z[39] + 5 z[40] + 51 z[41] + 100 z[42]
   + 58 z[43] + 24 z[44] + 35 z[45] + 57 z[46] + 81 z[47] + 28 z[48]
   + 37 z[49] + 16 z[50] + 46 z[51] + 94 z[52] + 45 z[53] + 12 z[54]
   + 87 z[55] + 13 z[56] + 56 z[57] + 90 z[58] + 36 z[59] <= 5540
 primal_lower0: - 2 y[0] - 251 y[1] - 118 y[2] - 160 y[3] - 224 y[4]
   - 194 y[5] - 256 y[6] - 226 y[7] - 225 y[8] - 226 y[9] - 92 y[10]
   - 55 y[11] - 205 y[12] - 237 y[13] - 12 y[14] - 36 y[15] - 46 y[16]
   - 9 y[17] - 134 y[18] - 202 y[19] - 127 y[20] - 55 y[21] - 110 y[22]
   - 148 y[23] - 103 y[24] - 135 y[25] - 183 y[26] - 262 y[27] - 160 y[28]
   - 216 y[29] - 56 y[30] - 75 y[31] - 116 y[32] - 97 y[33] - 25 y[34]
   - 70 y[35] - 56 y[36] - 214 y[37] - 244 y[38] - 123 y[39] - 9 y[40]
   - 167 y[41] - 216 y[42] - 72 y[43] - 138 y[44] - 47 y[45] - 96 y[46]
   - 137 y[47] - 157 y[48] - 217 y[49] - 10 y[50] - 167 y[51] - 233 y[52]
   - 244 y[53] - 139 y[54] - 200 y[55] - 238 y[56] - 15 y[57] - 117 y[58]
   - 141 y[59] + 640 u[0] + 469 u[1] + 785 u[2] + 905 u[3] + 35 u[4]
   + 319 u[5] + 880 u[6] + 79 u[7] + 69 u[8] + 48 u[9] + 206 u[10]
   + 668 u[11] + 134 u[12] + 296 u[13] + 392 u[14] + 694 u[15] + 686 u[16]
   + 29 u[17] + 215 u[18] + 997 u[19] + 140 u[20] + 838 u[21] + 584 u[22]
   + 518 u[23] + 805 u[24] + 178 u[25] + 73 u[26] + 701 u[27] + 485 u[28]
   + 278 u[29] + 41 u[30] + 367 u[31] + 574 u[32] + 317 u[33] + 781 u[34]
   + 901 u[35] + 434 u[36] + 25 u[37] + 387 u[38] + 348 u[39] + 70 u[40]
   + 696 u[41] + 108 u[42] + 602 u[43] + 389 u[44] + 411 u[45] + 811 u[46]
   + 955 u[47] + 477 u[48] + 104 u[49] + 453 u[50] + 585 u[51] + 91 u[52]
   + 623 u[53] + 508 u[54] + 2 u[55] + 926 u[56] + 209 u[57] + 900 u[58]
   + 131 u[59] <= 15823
 primal_lower1: - 43 y[0] - 109 y[1] - 39 y[2] - 131 y[3] - 40 y[4]
   - 82 y[5] - 105 y[6] - 78 y[7] - 107 y[8] - 46 y[9] - 34 y[10]
   - 74 y[11] - 16 y[12] - 143 y[13] - 57 y[14] - 33 y[15] - 150 y[16]
   - 132 y[17] - 45 y[18] - 32 y[19] - 24 y[20] - 50 y[21] - 180 y[22]
   - 153 y[23] - 6 y[24] - 185 y[25] - 31 y[26] - 154 y[27] - 48 y[28]
   - 83 y[29] - 107 y[30] - 158 y[31] - 33 y[32] - 159 y[33] - 67 y[34]
   - 138 y[35] - 149 y[36] - 169 y[37] - 81 y[38] - 187 y[39] - 166 y[40]
   - 190 y[41] - 79 y[42] - 80 y[43] - 140 y[44] - 136 y[45] - 74 y[46]
   - 7 y[47] - 69 y[48] - 82 y[49] - 52 y[50] - 11 y[51] - 43 y[52]
   - 185 y[53] - 49 y[54] - 152 y[55] - 136 y[56] - 140 y[57] - 148 y[58]
   - 63 y[59] + 58 u[0] + 967 u[1] + 171 u[2] + 827 u[3] + 77 u[4]
   + 585 u[5] + 314 u[6] + 753 u[7] + 47 u[8] + 194 u[9] + 296 u[10]
   + 422 u[11] + 824 u[12] + 162 u[13] + 250 u[14] + 864 u[15] + 584 u[16]
   + 647 u[17] + 857 u[18] + 935 u[19] + 102 u[20] + 504 u[21] + 898 u[22]
   + 544 u[23] + 143 u[24] + 76 u[25] + 627 u[26] + 719 u[27] + 375 u[28]
   + 992 u[29] + 795 u[30] + 673 u[31] + 392 u[32] + 135 u[33] + 495 u[34]
   + 151 u[35] + 84 u[36] + 307 u[37] + 269 u[38] + 382 u[39] + 896 u[40]
   + 906 u[41] + 638 u[42] + 348 u[43] + 367 u[44] + 173 u[45] + 405 u[46]
   + 805 u[47] + 31 u[48] + 642 u[49] + 183 u[50] + 379 u[51] + 917 u[52]
   + 105 u[53] + 998 u[54] + 876 u[55] + 224 u[56] + 683 u[57] + 406 u[58]
   + 349 u[59] <= 11531
 primal_lower2: - 15 y[0] - 4 y[1] - 2 y[2] - y[3] - y[4] - 5 y[5]
   - 14 y[6] - 3 y[7] - 10 y[8] - 11 y[9] - 10 y[10] - 4 y[11] - 10 y[12]
   - 2 y[13] - 13 y[14] - 5 y[15] - 5 y[16] - 6 y[17] - 3 y[19] - 12 y[20]
   - 14 y[21] - 2 y[22] - 15 y[23] - 12 y[24] - 5 y[25] - 3 y[26]
   - 12 y[27] - 12 y[28] - 15 y[29] - 6 y[30] - 10 y[32] - 10 y[33]
   - 8 y[34] - 15 y[35] - 11 y[36] - 4 y[37] - 9 y[38] - 7 y[39] - 7 y[40]
   - 10 y[42] - 7 y[43] - 13 y[44] - 2 y[45] - 10 y[47] - 4 y[48]
   - 12 y[49] - 10 y[51] - 15 y[52] - 13 y[53] - 16 y[54] - 10 y[55]
   - 10 y[56] - 11 y[57] - 15 y[58] - 2 y[59] + 417 u[0] + 122 u[1]
   + 554 u[2] + 350 u[3] + 788 u[4] + 300 u[5] + 897 u[6] + 516 u[7]
   + 606 u[8] + 517 u[9] + 255 u[10] + 201 u[11] + 599 u[12] + 797 u[13]
   + 833 u[14] + 299 u[15] + 831 u[16] + 450 u[17] + 56 u[18] + 242 u[19]
   + 165 u[20] + 931 u[21] + 33 u[22] + 515 u[23] + 198 u[24] + 871 u[25]
   + 378 u[26] + 458 u[27] + 918 u[28] + 291 u[29] + 90 u[30] + 372 u[31]
   + 183 u[32] + 50 u[33] + 494 u[34] + 874 u[35] + 731 u[36] + 902 u[37]
   + 508 u[38] + 745 u[39] + 303 u[40] + 525 u[41] + 189 u[42] + 383 u[43]
   + 438 u[44] + 856 u[45] + 252 u[46] + 968 u[47] + 934 u[48] + 341 u[49]
   + 630 u[50] + 390 u[51] + 84 u[52] + 452 u[53] + 253 u[54] + 367 u[55]
   + 231 u[56] + 958 u[57] + 573 u[58] + 56 u[59] <= 968
 primal_lower3: - 184 y[0] - 5 y[1] - 105 y[2] - 213 y[3] - 190 y[4]
   - 172 y[5] - 175 y[6] - 151 y[7] - 132 y[8] - 161 y[9] - 54 y[10]
   - 248 y[11] - 91 y[12] - 22 y[13] - 30 y[14] - 174 y[15] - 266 y[16]
   - 230 y[17] - 49 y[18] - 232 y[19] - 183 y[20] - 85 y[21] - 176 y[22]
   - 223 y[23] - 61 y[24] - 10 y[25] - 218 y[26] - 97 y[27] - 217 y[28]
   - 264 y[29] - 260 y[30] - 82 y[31] - 182 y[32] - 130 y[33] - 209 y[34]
   - 192 y[35] - 221 y[36] - 24 y[37] - 199 y[38] - 261 y[39] - 113 y[40]
   - 174 y[41] - 2 y[42] - 10 y[43] - 33 y[44] - 141 y[45] - 177 y[46]
   - 33 y[47] - 225 y[48] - 250 y[49] - 231 y[50] - 91 y[51] - 275 y[52]
   - y[53] - 163 y[54] - 159 y[55] - 32 y[56] - 195 y[57] - 119 y[58]
   - 121 y[59] + 47 u[0] + 369 u[1] + 755 u[2] + 322 u[3] + 489 u[4]
   + 283 u[5] + 754 u[6] + 423 u[7] + 363 u[8] + 717 u[9] + 489 u[10]
   + 420 u[11] + 92 u[12] + 397 u[13] + 555 u[14] + 63 u[15] + 804 u[16]
   + 362 u[17] + 289 u[18] + 798 u[19] + 243 u[20] + 474 u[21] + 522 u[22]
   + 30 u[23] + 963 u[24] + 438 u[25] + 291 u[26] + 605 u[27] + 156 u[28]
   + 378 u[29] + 292 u[30] + 399 u[31] + 68 u[32] + 577 u[33] + 823 u[34]
   + 973 u[35] + 336 u[36] + 638 u[37] + 605 u[38] + 141 u[39] + 516 u[40]
   + 685 u[41] + 319 u[42] + 954 u[43] + 411 u[44] + 87 u[45] + 462 u[46]
   + 243 u[47] + 556 u[48] + 988 u[49] + 807 u[50] + 970 u[51] + 289 u[52]
   + 371 u[53] + 407 u[54] + 451 u[55] + 357 u[56] + 133 u[57] + 374 u[58]
   + 972 u[59] <= 16857
 primal_lower4: - 15 y[0] - 39 y[1] - 40 y[2] - 73 y[3] - 95 y[4]
   - 129 y[5] - 87 y[6] - 84 y[7] - 60 y[8] - 91 y[9] - 134 y[10]
   - 183 y[11] - 71 y[12] - 49 y[13] - 139 y[14] - 66 y[15] - 122 y[16]
   - 159 y[17] - 75 y[18] - 118 y[19] - 31 y[20] - 145 y[21] - 155 y[22]
   - 188 y[23] - 124 y[24] - 101 y[25] - 14 y[26] - 176 y[27] - 153 y[28]
   - 79 y[29] - 80 y[30] - 4 y[31] - 140 y[32] - 69 y[33] - 21 y[34]
   - 27 y[35] - 77 y[36] - 40 y[37] - 34 y[38] - 44 y[39] - 8 y[40]
   - 84 y[41] - 25 y[42] - 184 y[43] - 86 y[44] - 48 y[45] - 154 y[46]
   - y[47] - 25 y[48] - 76 y[49] - 27 y[50] - 120 y[51] - 131 y[52]
   - 21 y[53] - 61 y[54] - 16 y[55] - 131 y[56] - 77 y[57] - 122 y[58]
   - 57 y[59] + 73 u[0] + 795 u[1] + 789 u[2] + 844 u[3] + 555 u[4]
   + 517 u[5] + 348 u[6] + 929 u[7] + 93 u[8] + 167 u[9] + 91 u[10]
   + 582 u[11] + 894 u[12] + 863 u[13] + 845 u[14] + 633 u[15] + 318 u[16]
   + 236 u[17] + 891 u[18] + 376 u[19] + 917 u[20] + 892 u[21] + 940 u[22]
   + 304 u[23] + 437 u[24] + 536 u[25] + 61 u[26] + 575 u[27] + 46 u[28]
   + 556 u[29] + 966 u[30] + 457 u[31] + 614 u[32] + 379 u[33] + 897 u[34]
   + 487 u[35] + 434 u[36] + 312 u[37] + 143 u[38] + 199 u[39] + 750 u[40]
   + 55 u[41] + 689 u[42] + 132 u[43] + 485 u[44] + 345 u[45] + 528 u[46]
   + 757 u[47] + 54 u[48] + 918 u[49] + 881 u[50] + 276 u[51] + 115 u[52]
   + 349 u[53] + 529 u[54] + 309 u[55] + 711 u[56] + 223 u[57] + 16 u[58]
   + 422 u[59] <= 11814
 primal_lower5: - 91 y[0] - 82 y[1] - 91 y[2] - 4 y[3] - 17 y[4] - 13 y[5]
   - 45 y[6] - 58 y[7] - 79 y[8] - 81 y[9] - 10 y[10] - 55 y[11] - 46 y[12]
   - 63 y[13] - 63 y[14] - 93 y[15] - 26 y[16] - 27 y[17] - 47 y[18]
   - 84 y[19] - 51 y[20] - 5 y[21] - 91 y[22] - 22 y[23] - 79 y[24]
   - 56 y[25] - 34 y[26] - 57 y[27] - 85 y[28] - 73 y[29] - 67 y[30]
   - 5 y[31] - 21 y[32] - 68 y[33] - 33 y[34] - 78 y[35] - 37 y[36]
   - 75 y[37] - 67 y[38] - 53 y[39] - 70 y[40] - 48 y[41] - 75 y[42]
   - 15 y[43] - 21 y[44] - 16 y[45] - 84 y[46] - 55 y[47] - 17 y[48]
   - 39 y[49] - 12 y[50] - 63 y[51] - 29 y[52] - 47 y[53] - 31 y[54]
   - 61 y[55] - 7 y[56] - 14 y[57] - 10 y[58] - 7 y[59] + 359 u[0]
   + 673 u[1] + 515 u[2] + 674 u[3] + 537 u[4] + 859 u[5] + 562 u[6]
   + 847 u[7] + 667 u[8] + 181 u[9] + 809 u[10] + 572 u[11] + 428 u[12]
   + 45 u[13] + 499 u[14] + 551 u[15] + 492 u[16] + 954 u[17] + 65 u[18]
   + 958 u[19] + 419 u[20] + 546 u[21] + 266 u[22] + 222 u[23] + 731 u[24]
   + 654 u[25] + 211 u[26] + 133 u[27] + 548 u[28] + 938 u[29] + 604 u[30]
   + 615 u[31] + 716 u[32] + 113 u[33] + 255 u[34] + 413 u[35] + 816 u[36]
   + 582 u[37] + 933 u[38] + 453 u[39] + 700 u[40] + 501 u[41] + 391 u[42]
   + 802 u[43] + 27 u[44] + 479 u[45] + 22 u[46] + 243 u[47] + 948 u[48]
   + 52 u[49] + 999 u[50] + 330 u[51] + 97 u[52] + 379 u[53] + 135 u[54]
   + 547 u[55] + 141 u[56] + 85 u[57] + 598 u[58] + 68 u[59] <= 5791
 primal_lower6: - 157 y[0] - 112 y[1] - 19 y[2] - 132 y[3] - 18 y[4]
   - 111 y[5] - 25 y[6] - 40 y[7] - 76 y[8] - 39 y[9] - 37 y[10]
   - 134 y[11] - 129 y[12] - 112 y[13] - 37 y[14] - y[15] - 149 y[16]
   - 103 y[17] - 24 y[18] - 66 y[19] - 80 y[20] - 173 y[21] - 13 y[22]
   - 62 y[23] - 78 y[24] - 181 y[25] - 35 y[26] - 114 y[27] - 108 y[28]
   - 188 y[29] - 185 y[30] - 176 y[31] - 192 y[32] - 47 y[33] - 87 y[34]
   - 103 y[35] - 127 y[36] - 8 y[37] - 89 y[38] - 106 y[39] - 201 y[40]
   - 11 y[41] - 146 y[42] - 203 y[43] - 3 y[44] - 102 y[45] - 38 y[46]
   - 113 y[47] - 46 y[48] - 5 y[49] - 151 y[50] - 106 y[51] - 158 y[52]
   - 6 y[53] - 115 y[54] - 90 y[55] - 175 y[56] - 201 y[57] - 15 y[58]
   - 181 y[59] + 679 u[0] + 992 u[1] + 696 u[2] + 444 u[3] + 146 u[4]
   + 450 u[5] + 343 u[6] + 426 u[7] + 348 u[8] + 891 u[9] + 605 u[10]
   + 751 u[11] + 645 u[12] + 107 u[13] + 47 u[14] + 577 u[15] + 669 u[16]
   + 336 u[17] + 702 u[18] + 640 u[19] + 691 u[20] + 521 u[21] + 167 u[22]
   + 737 u[23] + 20 u[24] + 173 u[25] + 536 u[26] + 584 u[27] + 380 u[28]
   + 201 u[29] + 384 u[30] + 594 u[31] + 5 u[32] + 632 u[33] + 924 u[34]
   + 368 u[35] + 841 u[36] + 668 u[37] + 690 u[38] + 807 u[39] + 117 u[40]
   + 99 u[41] + 579 u[42] + 485 u[43] + 932 u[44] + 334 u[45] + 794 u[46]
   + 526 u[47] + 612 u[48] + 403 u[49] + 228 u[50] + 692 u[51] + 810 u[52]
   + 730 u[53] + 187 u[54] + 429 u[55] + 437 u[56] + 820 u[57] + 731 u[58]
   + 638 u[59] <= 12400
 primal_lower7: - 179 y[0] - 151 y[1] - 152 y[2] - 163 y[3] - 190 y[4]
   - 195 y[5] - 182 y[6] - 136 y[7] - 92 y[8] - 103 y[9] - 75 y[10]
   - 143 y[11] - 96 y[12] - 12 y[13] - 50 y[14] - 180 y[15] - 94 y[16]
   - 60 y[17] - 14 y[18] - 139 y[20] - 142 y[21] - 103 y[22] - 94 y[23]
   - 164 y[24] - 166 y[25] - 50 y[26] - 167 y[27] - 146 y[28] - 172 y[29]
   - 7 y[30] - 110 y[31] - 27 y[32] - 123 y[33] - 12 y[34] - 161 y[35]
   - 40 y[36] - 111 y[37] - 5 y[39] - 193 y[40] - 123 y[41] - 173 y[42]
   - 168 y[43] - 180 y[44] - 83 y[45] - 152 y[46] - 78 y[47] - 128 y[48]
   - 193 y[49] - 62 y[50] - 101 y[51] - 90 y[52] - 82 y[53] - 24 y[54]
   - 12 y[55] - 99 y[56] - 53 y[57] - 93 y[58] - 148 y[59] + 822 u[0]
   + 123 u[1] + 223 u[2] + 383 u[3] + 457 u[4] + 301 u[5] + 926 u[6]
   + 725 u[7] + 411 u[8] + 526 u[9] + 660 u[10] + 538 u[11] + 884 u[12]
   + 830 u[13] + 694 u[14] + 380 u[15] + 764 u[16] + 99 u[17] + 349 u[18]
   + 947 u[19] + 194 u[20] + 228 u[21] + 390 u[22] + 500 u[23] + 387 u[24]
   + 472 u[25] + 879 u[26] + 547 u[27] + 491 u[28] + 852 u[29] + 615 u[30]
   + 989 u[31] + 428 u[32] + 11 u[33] + 507 u[34] + 571 u[35] + 504 u[36]
   + 783 u[37] + 889 u[38] + 946 u[39] + 948 u[40] + 142 u[41] + 338 u[42]
   + 112 u[43] + 179 u[44] + 9 u[45] + 129 u[46] + 233 u[47] + 91 u[48]
   + 6 u[49] + 683 u[50] + 391 u[51] + 177 u[52] + 389 u[53] + 586 u[54]
   + 704 u[55] + 780 u[56] + 975 u[57] + 570 u[58] + 217 u[59] <= 11953
 primal_lower8: - 89 y[0] - 91 y[1] - 3 y[2] - 170 y[3] - 99 y[4] - 11 y[5]
   - 16 y[6] - 26 y[7] - 82 y[8] - 178 y[9] - 54 y[10] - 44 y[11]
   - 179 y[12] - 205 y[13] - 173 y[14] - 26 y[15] - 123 y[16] - 107 y[17]
   - 135 y[18] - 115 y[19] - 207 y[20] - 209 y[21] - 122 y[22] - 149 y[23]
   - 142 y[24] - 51 y[25] - 180 y[26] - 130 y[27] - 173 y[28] - 126 y[29]
   - 132 y[30] - 158 y[31] - 117 y[32] - 179 y[33] - 22 y[34] - 49 y[35]
   - 23 y[36] - 133 y[37] - 203 y[38] - 54 y[39] - 172 y[40] - 30 y[41]
   - 163 y[42] - 168 y[43] - 51 y[44] - 84 y[45] - 84 y[46] - 49 y[47]
   - 94 y[48] - 133 y[50] - 167 y[51] - 29 y[52] - 139 y[53] - 16 y[54]
   - 192 y[55] - 15 y[56] - 123 y[57] - 42 y[58] - 177 y[59] + 668 u[0]
   + 249 u[1] + 741 u[2] + 965 u[3] + 983 u[4] + 379 u[5] + 612 u[6]
   + 299 u[7] + 977 u[8] + 940 u[9] + 370 u[10] + 944 u[11] + 218 u[12]
   + 4 u[13] + 556 u[14] + 170 u[15] + 410 u[16] + 577 u[17] + 387 u[18]
   + 753 u[19] + 432 u[20] + 258 u[21] + 588 u[22] + 594 u[23] + 601 u[24]
   + 750 u[25] + 893 u[26] + 529 u[27] + 513 u[28] + 418 u[29] + 317 u[30]
   + 347 u[31] + 906 u[32] + 273 u[33] + 281 u[34] + 625 u[35] + 270 u[36]
   + 341 u[37] + 487 u[38] + 360 u[39] + 866 u[40] + 644 u[41] + 672 u[42]
   + 230 u[43] + 953 u[44] + 223 u[45] + 927 u[46] + 367 u[47] + 657 u[48]
   + 796 u[49] + 865 u[50] + 805 u[51] + 279 u[52] + 275 u[53] + 400 u[54]
   + 134 u[55] + 794 u[56] + 21 u[57] + 240 u[58] + 415 u[59] <= 12619
 primal_lower9: - 176 y[0] - 66 y[1] - 195 y[2] - 25 y[3] - 106 y[4]
   - 101 y[5] - 55 y[6] - 97 y[7] - 174 y[8] - 128 y[9] - 52 y[10]
   - 157 y[11] - 59 y[12] - 68 y[13] - 2 y[14] - 59 y[15] - 50 y[16]
   - 79 y[17] - 49 y[18] - 30 y[19] - 146 y[20] - 171 y[21] - 92 y[22]
   - 12 y[23] - 194 y[24] - 35 y[25] - 104 y[26] - 29 y[27] - 180 y[28]
   - 82 y[29] - 154 y[30] - 87 y[31] - 181 y[32] - 43 y[33] - 85 y[34]
   - 87 y[35] - 165 y[36] - 36 y[37] - 52 y[38] - 34 y[39] - 163 y[40]
   - 22 y[41] - 185 y[42] - 40 y[43] - 82 y[44] - 148 y[45] - 28 y[46]
   - 54 y[47] - 143 y[48] - 105 y[49] - 186 y[50] - 163 y[51] - 194 y[52]
   - 195 y[53] - 61 y[54] - 4 y[55] - 121 y[56] - 173 y[57] - 165 y[58]
   - 167 y[59] + 24 u[0] + 997 u[1] + 817 u[2] + 657 u[3] + 363 u[4]
   + 383 u[5] + 408 u[6] + 823 u[7] + 973 u[8] + 48 u[9] + 294 u[10]
   + 164 u[11] + 446 u[12] + 24 u[13] + 704 u[14] + 430 u[15] + 294 u[16]
   + 725 u[17] + 967 u[18] + 21 u[19] + 372 u[20] + 182 u[21] + 48 u[22]
   + 702 u[23] + 597 u[24] + 466 u[25] + 9 u[26] + 533 u[27] + 317 u[28]
   + 94 u[29] + 65 u[30] + 527 u[31] + 126 u[32] + 917 u[33] + 277 u[34]
   + 861 u[35] + 858 u[36] + 9 u[37] + 555 u[38] + 684 u[39] + 958 u[40]
   + 768 u[41] + 956 u[42] + 242 u[43] + 645 u[44] + 603 u[45] + 819 u[46]
   + 515 u[47] + 989 u[48] + 48 u[49] + 517 u[50] + 137 u[51] + 419 u[52]
   + 711 u[53] + 436 u[54] + 914 u[55] + 814 u[56] + 969 u[57] + 124 u[58]
   + 459 u[59] <= 11921
 mccormick1[0]: - u[0] + z[0] <= 0
 mccormick1[1]: - u[1] + z[1] <= 0
 mccormick1[2]: - u[2] + z[2] <= 0
 mccormick1[3]: - u[3] + z[3] <= 0
 mccormick1[4]: - u[4] + z[4] <= 0
 mccormick1[5]: - u[5] + z[5] <= 0
 mccormick1[6]: - u[6] + z[6] <= 0
 mccormick1[7]: - u[7] + z[7] <= 0
 mccormick1[8]: - u[8] + z[8] <= 0
 mccormick1[9]: - u[9] + z[9] <= 0
 mccormick1[10]: - u[10] + z[10] <= 0
 mccormick1[11]: - u[11] + z[11] <= 0
 mccormick1[12]: - u[12] + z[12] <= 0
 mccormick1[13]: - u[13] + z[13] <= 0
 mccormick1[14]: - u[14] + z[14] <= 0
 mccormick1[15]: - u[15] + z[15] <= 0
 mccormick1[16]: - u[16] + z[16] <= 0
 mccormick1[17]: - u[17] + z[17] <= 0
 mccormick1[18]: - u[18] + z[18] <= 0
 mccormick1[19]: - u[19] + z[19] <= 0
 mccormick1[20]: - u[20] + z[20] <= 0
 mccormick1[21]: - u[21] + z[21] <= 0
 mccormick1[22]: - u[22] + z[22] <= 0
 mccormick1[23]: - u[23] + z[23] <= 0
 mccormick1[24]: - u[24] + z[24] <= 0
 mccormick1[25]: - u[25] + z[25] <= 0
 mccormick1[26]: - u[26] + z[26] <= 0
 mccormick1[27]: - u[27] + z[27] <= 0
 mccormick1[28]: - u[28] + z[28] <= 0
 mccormick1[29]: - u[29] + z[29] <= 0
 mccormick1[30]: - u[30] + z[30] <= 0
 mccormick1[31]: - u[31] + z[31] <= 0
 mccormick1[32]: - u[32] + z[32] <= 0
 mccormick1[33]: - u[33] + z[33] <= 0
 mccormick1[34]: - u[34] + z[34] <= 0
 mccormick1[35]: - u[35] + z[35] <= 0
 mccormick1[36]: - u[36] + z[36] <= 0
 mccormick1[37]: - u[37] + z[37] <= 0
 mccormick1[38]: - u[38] + z[38] <= 0
 mccormick1[39]: - u[39] + z[39] <= 0
 mccormick1[40]: - u[40] + z[40] <= 0
 mccormick1[41]: - u[41] + z[41] <= 0
 mccormick1[42]: - u[42] + z[42] <= 0
 mccormick1[43]: - u[43] + z[43] <= 0
 mccormick1[44]: - u[44] + z[44] <= 0
 mccormick1[45]: - u[45] + z[45] <= 0
 mccormick1[46]: - u[46] + z[46] <= 0
 mccormick1[47]: - u[47] + z[47] <= 0
 mccormick1[48]: - u[48] + z[48] <= 0
 mccormick1[49]: - u[49] + z[49] <= 0
 mccormick1[50]: - u[50] + z[50] <= 0
 mccormick1[51]: - u[51] + z[51] <= 0
 mccormick1[52]: - u[52] + z[52] <= 0
 mccormick1[53]: - u[53] + z[53] <= 0
 mccormick1[54]: - u[54] + z[54] <= 0
 mccormick1[55]: - u[55] + z[55] <= 0
 mccormick1[56]: - u[56] + z[56] <= 0
 mccormick1[57]: - u[57] + z[57] <= 0
 mccormick1[58]: - u[58] + z[58] <= 0
 mccormick1[59]: - u[59] + z[59] <= 0
 mccormick2[0]: - y[0] + z[0] <= 0
 mccormick2[1]: - y[1] + z[1] <= 0
 mccormick2[2]: - y[2] + z[2] <= 0
 mccormick2[3]: - y[3] + z[3] <= 0
 mccormick2[4]: - y[4] + z[4] <= 0
 mccormick2[5]: - y[5] + z[5] <= 0
 mccormick2[6]: - y[6] + z[6] <= 0
 mccormick2[7]: - y[7] + z[7] <= 0
 mccormick2[8]: - y[8] + z[8] <= 0
 mccormick2[9]: - y[9] + z[9] <= 0
 mccormick2[10]: - y[10] + z[10] <= 0
 mccormick2[11]: - y[11] + z[11] <= 0
 mccormick2[12]: - y[12] + z[12] <= 0
 mccormick2[13]: - y[13] + z[13] <= 0
 mccormick2[14]: - y[14] + z[14] <= 0
 mccormick2[15]: - y[15] + z[15] <= 0
 mccormick2[16]: - y[16] + z[16] <= 0
 mccormick2[17]: - y[17] + z[17] <= 0
 mccormick2[18]: - y[18] + z[18] <= 0
 mccormick2[19]: - y[19] + z[19] <= 0
 mccormick2[20]: - y[20] + z[20] <= 0
 mccormick2[21]: - y[21] + z[21] <= 0
 mccormick2[22]: - y[22] + z[22] <= 0
 mccormick2[23]: - y[23] + z[23] <= 0
 mccormick2[24]: - y[24] + z[24] <= 0
 mccormick2[25]: - y[25] + z[25] <= 0
 mccormick2[26]: - y[26] + z[26] <= 0
 mccormick2[27]: - y[27] + z[27] <= 0
 mccormick2[28]: - y[28] + z[28] <= 0
 mccormick2[29]: - y[29] + z[29] <= 0
 mccormick2[30]: - y[30] + z[30] <= 0
 mccormick2[31]: - y[31] + z[31] <= 0
 mccormick2[32]: - y[32] + z[32] <= 0
 mccormick2[33]: - y[33] + z[33] <= 0
 mccormick2[34]: - y[34] + z[34] <= 0
 mccormick2[35]: - y[35] + z[35] <= 0
 mccormick2[36]: - y[36] + z[36] <= 0
 mccormick2[37]: - y[37] + z[37] <= 0
 mccormick2[38]: - y[38] + z[38] <= 0
 mccormick2[39]: - y[39] + z[39] <= 0
 mccormick2[40]: - y[40] + z[40] <= 0
 mccormick2[41]: - y[41] + z[41] <= 0
 mccormick2[42]: - y[42] + z[42] <= 0
 mccormick2[43]: - y[43] + z[43] <= 0
 mccormick2[44]: - y[44] + z[44] <= 0
 mccormick2[45]: - y[45] + z[45] <= 0
 mccormick2[46]: - y[46] + z[46] <= 0
 mccormick2[47]: - y[47] + z[47] <= 0
 mccormick2[48]: - y[48] + z[48] <= 0
 mccormick2[49]: - y[49] + z[49] <= 0
 mccormick2[50]: - y[50] + z[50] <= 0
 mccormick2[51]: - y[51] + z[51] <= 0
 mccormick2[52]: - y[52] + z[52] <= 0
 mccormick2[53]: - y[53] + z[53] <= 0
 mccormick2[54]: - y[54] + z[54] <= 0
 mccormick2[55]: - y[55] + z[55] <= 0
 mccormick2[56]: - y[56] + z[56] <= 0
 mccormick2[57]: - y[57] + z[57] <= 0
 mccormick2[58]: - y[58] + z[58] <= 0
 mccormick2[59]: - y[59] + z[59] <= 0
 mccormick3[0]: y[0] + u[0] - z[0] <= 1
 mccormick3[1]: y[1] + u[1] - z[1] <= 1
 mccormick3[2]: y[2] + u[2] - z[2] <= 1
 mccormick3[3]: y[3] + u[3] - z[3] <= 1
 mccormick3[4]: y[4] + u[4] - z[4] <= 1
 mccormick3[5]: y[5] + u[5] - z[5] <= 1
 mccormick3[6]: y[6] + u[6] - z[6] <= 1
 mccormick3[7]: y[7] + u[7] - z[7] <= 1
 mccormick3[8]: y[8] + u[8] - z[8] <= 1
 mccormick3[9]: y[9] + u[9] - z[9] <= 1
 mccormick3[10]: y[10] + u[10] - z[10] <= 1
 mccormick3[11]: y[11] + u[11] - z[11] <= 1
 mccormick3[12]: y[12] + u[12] - z[12] <= 1
 mccormick3[13]: y[13] + u[13] - z[13] <= 1
 mccormick3[14]: y[14] + u[14] - z[14] <= 1
 mccormick3[15]: y[15] + u[15] - z[15] <= 1
 mccormick3[16]: y[16] + u[16] - z[16] <= 1
 mccormick3[17]: y[17] + u[17] - z[17] <= 1
 mccormick3[18]: y[18] + u[18] - z[18] <= 1
 mccormick3[19]: y[19] + u[19] - z[19] <= 1
 mccormick3[20]: y[20] + u[20] - z[20] <= 1
 mccormick3[21]: y[21] + u[21] - z[21] <= 1
 mccormick3[22]: y[22] + u[22] - z[22] <= 1
 mccormick3[23]: y[23] + u[23] - z[23] <= 1
 mccormick3[24]: y[24] + u[24] - z[24] <= 1
 mccormick3[25]: y[25] + u[25] - z[25] <= 1
 mccormick3[26]: y[26] + u[26] - z[26] <= 1
 mccormick3[27]: y[27] + u[27] - z[27] <= 1
 mccormick3[28]: y[28] + u[28] - z[28] <= 1
 mccormick3[29]: y[29] + u[29] - z[29] <= 1
 mccormick3[30]: y[30] + u[30] - z[30] <= 1
 mccormick3[31]: y[31] + u[31] - z[31] <= 1
 mccormick3[32]: y[32] + u[32] - z[32] <= 1
 mccormick3[33]: y[33] + u[33] - z[33] <= 1
 mccormick3[34]: y[34] + u[34] - z[34] <= 1
 mccormick3[35]: y[35] + u[35] - z[35] <= 1
 mccormick3[36]: y[36] + u[36] - z[36] <= 1
 mccormick3[37]: y[37] + u[37] - z[37] <= 1
 mccormick3[38]: y[38] + u[38] - z[38] <= 1
 mccormick3[39]: y[39] + u[39] - z[39] <= 1
 mccormick3[40]: y[40] + u[40] - z[40] <= 1
 mccormick3[41]: y[41] + u[41] - z[41] <= 1
 mccormick3[42]: y[42] + u[42] - z[42] <= 1
 mccormick3[43]: y[43] + u[43] - z[43] <= 1
 mccormick3[44]: y[44] + u[44] - z[44] <= 1
 mccormick3[45]: y[45] + u[45] - z[45] <= 1
 mccormick3[46]: y[46] + u[46] - z[46] <= 1
 mccormick3[47]: y[47] + u[47] - z[47] <= 1
 mccormick3[48]: y[48] + u[48] - z[48] <= 1
 mccormick3[49]: y[49] + u[49] - z[49] <= 1
 mccormick3[50]: y[50] + u[50] - z[50] <= 1
 mccormick3[51]: y[51] + u[51] - z[51] <= 1
 mccormick3[52]: y[52] + u[52] - z[52] <= 1
 mccormick3[53]: y[53] + u[53] - z[53] <= 1
 mccormick3[54]: y[54] + u[54] - z[54] <= 1
 mccormick3[55]: y[55] + u[55] - z[55] <= 1
 mccormick3[56]: y[56] + u[56] - z[56] <= 1
 mccormick3[57]: y[57] + u[57] - z[57] <= 1
 mccormick3[58]: y[58] + u[58] - z[58] <= 1
 mccormick3[59]: y[59] + u[59] - z[59] <= 1
Bounds
Binaries
 y[0] y[1] y[2] y[3] y[4] y[5] y[6] y[7] y[8] y[9] y[10] y[11] y[12] y[13]
 y[14] y[15] y[16] y[17] y[18] y[19] y[20] y[21] y[22] y[23] y[24] y[25]
 y[26] y[27] y[28] y[29] y[30] y[31] y[32] y[33] y[34] y[35] y[36] y[37]
 y[38] y[39] y[40] y[41] y[42] y[43] y[44] y[45] y[46] y[47] y[48] y[49]
 y[50] y[51] y[52] y[53] y[54] y[55] y[56] y[57] y[58] y[59] u[0] u[1] u[2]
 u[3] u[4] u[5] u[6] u[7] u[8] u[9] u[10] u[11] u[12] u[13] u[14] u[15]
 u[16] u[17] u[18] u[19] u[20] u[21] u[22] u[23] u[24] u[25] u[26] u[27]
 u[28] u[29] u[30] u[31] u[32] u[33] u[34] u[35] u[36] u[37] u[38] u[39]
 u[40] u[41] u[42] u[43] u[44] u[45] u[46] u[47] u[48] u[49] u[50] u[51]
 u[52] u[53] u[54] u[55] u[56] u[57] u[58] u[59] z[0] z[1] z[2] z[3] z[4]
 z[5] z[6] z[7] z[8] z[9] z[10] z[11] z[12] z[13] z[14] z[15] z[16] z[17]
 z[18] z[19] z[20] z[21] z[22] z[23] z[24] z[25] z[26] z[27] z[28] z[29]
 z[30] z[31] z[32] z[33] z[34] z[35] z[36] z[37] z[38] z[39] z[40] z[41]
 z[42] z[43] z[44] z[45] z[46] z[47] z[48] z[49] z[50] z[51] z[52] z[53]
 z[54] z[55] z[56] z[57] z[58] z[59]
End
